(declare-const BAV1 Bool)
(declare-const BAV2 Bool)
(declare-const BAV3 Bool)
(declare-const BAV4 Bool)
(declare-const GEN15 Real)
(declare-const GEN14 Int)
(declare-const GEN13 Int)
(declare-const GEN12 Int)
(declare-const GEN11 Real)
(declare-const GEN10 Int)
(declare-const GEN9 Int)
(declare-const GEN8 (_ BitVec 48))
(declare-const GEN7 (_ BitVec 10))
(declare-const GEN6 (_ BitVec 1))
(declare-const GEN5 Int)
(declare-const GEN4 Int)
(declare-const GEN3 (_ BitVec 52))
(declare-const GEN2 (_ BitVec 11))
(declare-const GEN1 (_ BitVec 1))
(set-info :source "Handcrafted by C.M. Wintersteiger")
(declare-fun X () (_ FloatingPoint 11 53))
(assert (= X (fp GEN1 GEN2 GEN3)))
(assert (= X ((_ to_fp 11 53) RTZ (fp GEN6 GEN7 GEN8))))
(assert (= X ((_ to_fp 11 53) RTZ GEN11 GEN12)))
(assert (= X ((_ to_fp 11 53) RTZ GEN15)))
(assert (= BAV1 (= X (fp GEN1 GEN2 GEN3))))
(assert (= BAV2 (= X ((_ to_fp 11 53) RTZ (fp GEN6 GEN7 GEN8)))))
(assert (= BAV3 (= X ((_ to_fp 11 53) RTZ GEN11 GEN12))))
(assert (= BAV4 (= X ((_ to_fp 11 53) RTZ GEN15))))
(check-sat)
(get-model)
(check-sat-using smt)
(exit)